Speck32/MILP/sol/6Round_793.sol
# Objective value = 16.0
pro0Rd0 -1.3322676295501878e-15
pro1Rd0 -0.0
pro2Rd0 0.0
pro3Rd0 -2.6645352591003757e-15
pro4Rd0 -0.0
pro5Rd0 1.0000000000000142
pro6Rd0 -0.0
pro7Rd0 1.0000000000000089
pro8Rd0 -5.329070518200751e-15
pro9Rd0 1.0000000000000213
pro10Rd0 -8.881784197001252e-15
pro11Rd0 -0.0
pro12Rd0 -0.0
pro13Rd0 -2.6645352591003757e-15
pro14Rd0 1.0
pro0Rd1 -1.3322676295501878e-15
pro1Rd1 -2.6645352591003757e-15
pro2Rd1 -2.6645352591003757e-15
pro3Rd1 -0.0
pro4Rd1 -5.329070518200751e-15
pro5Rd1 1.0
pro6Rd1 -2.6645352591003757e-15
pro7Rd1 -1.3322676295501878e-15
pro8Rd1 -0.0
pro9Rd1 -1.3322676295501878e-15
pro10Rd1 -6.217248937900877e-15
pro11Rd1 -2.6645352591003757e-15
pro12Rd1 1.0
pro13Rd1 -0.0
pro14Rd1 1.0
pro0Rd2 0.0
pro1Rd2 -6.217248937900877e-15
pro2Rd2 -2.6645352591003757e-15
pro3Rd2 1.0
pro4Rd2 -2.6645352591003757e-15
pro5Rd2 -0.0
pro6Rd2 -2.6645352591003757e-15
pro7Rd2 -2.6645352591003757e-15
pro8Rd2 -0.0
pro9Rd2 0.0
pro10Rd2 0.0
pro11Rd2 -0.0
pro12Rd2 -0.0
pro13Rd2 -2.6645352591003757e-15
pro14Rd2 -1.3322676295501878e-15
pro0Rd3 -7.993605777301127e-15
pro1Rd3 1.0
pro2Rd3 0.0
pro3Rd3 0.0
pro4Rd3 -0.0
pro5Rd3 -2.4424906541753444e-15
pro6Rd3 3.608224830031759e-16
pro7Rd3 -0.0
pro8Rd3 -0.0
pro9Rd3 -0.0
pro10Rd3 -0.0
pro11Rd3 -1.3322676295501878e-15
pro12Rd3 2.6645352591003757e-15
pro13Rd3 -5.329070518200751e-15
pro14Rd3 -0.0
pro0Rd4 -2.6645352591003757e-15
pro1Rd4 1.0
pro2Rd4 0.0
pro3Rd4 1.7763568394002505e-15
pro4Rd4 4.884981308350689e-15
pro5Rd4 -2.6645352591003757e-15
pro6Rd4 7.993605777301127e-15
pro7Rd4 -1.3322676295501878e-15
pro8Rd4 1.0
pro9Rd4 2.220446049250313e-16
pro10Rd4 2.220446049250313e-16
pro11Rd4 7.771561172376096e-16
pro12Rd4 6.217248937900877e-15
pro13Rd4 8.881784197001252e-15
pro14Rd4 -4.440892098500626e-15
pro0Rd5 2.7755575615628914e-16
pro1Rd5 1.0000000000000018
pro2Rd5 0.0
pro3Rd5 5.329070518200751e-15
pro4Rd5 -0.0
pro5Rd5 -0.0
pro6Rd5 1.0
pro7Rd5 1.0000000000000004
pro8Rd5 1.0
pro9Rd5 -0.0
pro10Rd5 -0.0
pro11Rd5 8.326672684688674e-16
pro12Rd5 7.105427357601002e-15
pro13Rd5 1.0
pro14Rd5 1.9984014443252818e-15
p0 -2.6645352591003757e-15
p1 1.0
p2 -1.4210854715202004e-14
p3 1.0000000000000178
p4 -4.440892098500626e-15
p5 -2.6645352591003757e-15
p6 -0.0
p7 0.0
p8 1.0000000000000062
p9 -0.0
p10 -1.3322676295501878e-15
p11 0.0
p12 0.0
p13 -0.0
p14 -2.6645352591003757e-15
p15 1.0
p16 -2.6645352591003757e-15
p17 0.0
p18 0.0
p19 -0.0
p20 -2.6645352591003757e-15
p21 -2.6645352591003757e-15
p22 -5.329070518200751e-15
p23 -2.6645352591003757e-15
p24 -8.881784197001252e-15
p25 -2.6645352591003757e-15
p26 1.0
p27 -7.993605777301127e-15
p28 -2.6645352591003757e-15
p29 0.0
p30 -2.6645352591003757e-15
p31 -6.217248937900877e-15
p0Rd1 -2.6645352591003757e-15
p16Rd1 -2.6645352591003757e-15
temp0Rnd0 -2.6645352591003757e-15
p1Rd1 -1.3322676295501878e-15
p17Rd1 -1.3322676295501878e-15
temp1Rnd0 -1.3322676295501878e-15
p2Rd1 0.0
p18Rd1 -2.6645352591003757e-15
temp2Rnd0 -2.6645352591003757e-15
p3Rd1 -0.0
p19Rd1 -2.6645352591003757e-15
temp3Rnd0 -2.6645352591003757e-15
p4Rd1 -5.329070518200751e-15
p20Rd1 -0.0
temp4Rnd0 -5.329070518200751e-15
p5Rd1 -2.6645352591003757e-15
p21Rd1 -5.329070518200751e-15
temp5Rnd0 -5.329070518200751e-15
p6Rd1 1.0000000000000089
p22Rd1 1.0
temp6Rnd0 1.0
p7Rd1 -2.6645352591003757e-15
p23Rd1 -0.0
temp7Rnd0 -2.6645352591003757e-15
p8Rd1 1.0
p24Rd1 0.0
temp8Rnd0 1.0
p9Rd1 -7.993605777301127e-15
p25Rd1 -0.0
temp9Rnd0 -7.993605777301127e-15
p10Rd1 -3.9968028886505635e-15
p26Rd1 -1.3322676295501878e-15
temp10Rnd0 -3.9968028886505635e-15
p11Rd1 -0.0
p27Rd1 -0.0
temp11Rnd0 -0.0
p12Rd1 -2.6645352591003757e-15
p28Rd1 -0.0
temp12Rnd0 -2.6645352591003757e-15
p13Rd1 0.0
p29Rd1 -6.217248937900877e-15
temp13Rnd0 -6.217248937900877e-15
p14Rd1 -0.0
p30Rd1 -2.6645352591003757e-15
temp14Rnd0 -2.6645352591003757e-15
p15Rd1 1.0
p31Rd1 1.0
temp15Rnd0 1.0
temp0 1.0
p0Rd2 -2.6645352591003757e-15
p16Rd2 0.0
temp0Rnd1 -2.6645352591003757e-15
p1Rd2 -2.6645352591003757e-15
p17Rd2 -0.0
temp1Rnd1 -2.6645352591003757e-15
p2Rd2 0.0
p18Rd2 -0.0
temp2Rnd1 0.0
p3Rd2 -0.0
p19Rd2 -5.329070518200751e-15
temp3Rnd1 -5.329070518200751e-15
p4Rd2 -0.0
p20Rd2 1.0
temp4Rnd1 1.0
p5Rd2 0.0
p21Rd2 0.0
temp5Rnd1 0.0
p6Rd2 -0.0
p22Rd2 0.0
temp6Rnd1 0.0
p7Rd2 -2.6645352591003757e-15
p23Rd2 -2.6645352591003757e-15
temp7Rnd1 -2.6645352591003757e-15
p8Rd2 -1.3322676295501878e-15
p24Rd2 -2.6645352591003757e-15
temp8Rnd1 -2.6645352591003757e-15
p9Rd2 -0.0
p25Rd2 0.0
temp9Rnd1 0.0
p10Rd2 -0.0
p26Rd2 0.0
temp10Rnd1 0.0
p11Rd2 -6.217248937900877e-15
p27Rd2 0.0
temp11Rnd1 -6.217248937900877e-15
p12Rd2 -2.6645352591003757e-15
p28Rd2 0.0
temp12Rnd1 -2.6645352591003757e-15
p13Rd2 1.0
p29Rd2 0.0
temp13Rnd1 1.0
p14Rd2 -2.6645352591003757e-15
p30Rd2 -0.0
temp14Rnd1 -2.6645352591003757e-15
p15Rd2 0.0
p31Rd2 -1.3322676295501878e-15
temp15Rnd1 -1.3322676295501878e-15
temp1 1.0
p0Rd3 0.0
p16Rd3 0.0
temp0Rnd2 0.0
p1Rd3 0.0
p17Rd3 -5.329070518200751e-15
temp1Rnd2 -5.329070518200751e-15
p2Rd3 0.0
p18Rd3 1.0
temp2Rnd2 1.0
p3Rd3 0.0
p19Rd3 0.0
temp3Rnd2 0.0
p4Rd3 0.0
p20Rd3 0.0
temp4Rnd2 0.0
p5Rd3 -2.6645352591003757e-15
p21Rd3 0.0
temp5Rnd2 -2.6645352591003757e-15
p6Rd3 -0.0
p22Rd3 -2.6645352591003757e-15
temp6Rnd2 -2.6645352591003757e-15
p7Rd3 -5.329070518200751e-15
p23Rd3 3.608224830031759e-16
temp7Rnd2 -2.6645352591003757e-15
p8Rd3 0.0
p24Rd3 -0.0
temp8Rnd2 0.0
p9Rd3 0.0
p25Rd3 -0.0
temp9Rnd2 0.0
p10Rd3 -0.0
p26Rd3 -0.0
temp10Rnd2 0.0
p11Rd3 0.0
p27Rd3 0.0
temp11Rnd2 0.0
p12Rd3 0.0
p28Rd3 -0.0
temp12Rnd2 -0.0
p13Rd3 -0.0
p29Rd3 -1.5543122344752192e-15
temp13Rnd2 -1.5543122344752192e-15
p14Rd3 0.0
p30Rd3 -0.0
temp14Rnd2 -0.0
p15Rd3 0.0
p31Rd3 0.0
temp15Rnd2 -0.0
temp2 -1.3322676295501878e-15
p0Rd4 -7.993605777301127e-15
p16Rd4 1.000000000000008
temp0Rnd3 1.0
p1Rd4 -2.6645352591003757e-15
p17Rd4 -2.6645352591003757e-15
temp1Rnd3 -2.6645352591003757e-15
p2Rd4 1.0
p18Rd4 1.0
temp2Rnd3 1.0
p3Rd4 0.0
p19Rd4 -0.0
temp3Rnd3 -0.0
p4Rd4 -0.0
p20Rd4 -2.6645352591003757e-15
temp4Rnd3 -2.6645352591003757e-15
p5Rd4 0.0
p21Rd4 -1.1102230246251565e-15
temp5Rnd3 -2.220446049250313e-16
p6Rd4 -2.6645352591003757e-15
p22Rd4 -2.6645352591003757e-15
temp6Rnd3 -2.6645352591003757e-15
p7Rd4 3.608224830031759e-16
p23Rd4 3.608224830031759e-16
temp7Rnd3 3.608224830031759e-16
p8Rd4 0.0
p24Rd4 0.0
temp8Rnd3 0.0
p9Rd4 -0.0
p25Rd4 -0.0
temp9Rnd3 0.0
p10Rd4 0.0
p26Rd4 0.0
temp10Rnd3 0.0
p11Rd4 -0.0
p27Rd4 2.220446049250313e-16
temp11Rnd3 0.0
p12Rd4 -1.3322676295501878e-15
p28Rd4 -1.3322676295501878e-15
temp12Rnd3 -1.3322676295501878e-15
p13Rd4 1.3322676295501878e-15
p29Rd4 1.3322676295501878e-15
temp13Rnd3 1.3322676295501878e-15
p14Rd4 -5.329070518200751e-15
p30Rd4 -5.329070518200751e-15
temp14Rnd3 -5.329070518200751e-15
p15Rd4 -0.0
p31Rd4 -5.329070518200751e-15
temp15Rnd3 -5.329070518200751e-15
temp3 0.0
p0Rd5 1.0000000000000124
p16Rd5 -1.2434497875801753e-14
temp0Rnd4 1.0
p1Rd5 6.661338147750939e-16
p17Rd5 6.661338147750939e-16
temp1Rnd4 6.661338147750939e-16
p2Rd5 1.0
p18Rd5 1.0000000000000027
temp2Rnd4 1.0
p3Rd5 0.0
p19Rd5 -8.881784197001252e-16
temp3Rnd4 -1.1102230246251565e-15
p4Rd5 -7.771561172376096e-16
p20Rd5 -3.1086244689504383e-15
temp4Rnd4 -3.1086244689504383e-15
p5Rd5 4.440892098500626e-15
p21Rd5 3.3306690738754696e-15
temp5Rnd4 3.3306690738754696e-15
p6Rd5 -5.329070518200751e-15
p22Rd5 -5.329070518200751e-15
temp6Rnd4 -5.329070518200751e-15
p7Rd5 8.881784197001252e-15
p23Rd5 -0.0
temp7Rnd4 3.9968028886505635e-15
p8Rd5 -1.3322676295501878e-15
p24Rd5 -0.0
temp8Rnd4 -8.881784197001252e-16
p9Rd5 1.0
p25Rd5 1.0
temp9Rnd4 1.0
p10Rd5 2.220446049250313e-16
p26Rd5 0.0
temp10Rnd4 0.0
p11Rd5 1.1102230246251565e-15
p27Rd5 -7.771561172376096e-16
temp11Rnd4 6.661338147750939e-16
p12Rd5 -8.881784197001252e-16
p28Rd5 2.6645352591003757e-15
temp12Rnd4 -2.220446049250313e-15
p13Rd5 7.993605777301127e-15
p29Rd5 1.7763568394002505e-15
temp13Rnd4 1.7763568394002505e-15
p14Rd5 3.3306690738754696e-15
p30Rd5 1.0000000000000049
temp14Rnd4 1.000000000000008
p15Rd5 -5.329070518200751e-15
p31Rd5 1.9984014443252818e-15
temp15Rnd4 -3.552713678800501e-15
temp4 -4.440892098500626e-15
p0Rd6 1.0
p16Rd6 2.6645352591003757e-15
temp0Rnd5 1.0000000000000027
p1Rd6 9.992007221626409e-16
p17Rd6 -1.7763568394002505e-15
temp1Rnd5 -8.881784197001252e-16
p2Rd6 1.0
p18Rd6 1.000000000000003
temp2Rnd5 1.0
p3Rd6 -8.881784197001252e-16
p19Rd6 0.0
temp3Rnd5 -0.0
p4Rd6 2.220446049250313e-15
p20Rd6 7.993605777301127e-15
temp4Rnd5 2.220446049250313e-15
p5Rd6 3.3306690738754696e-15
p21Rd6 -0.0
temp5Rnd5 1.5543122344752192e-15
p6Rd6 -5.329070518200751e-15
p22Rd6 4.884981308350689e-15
temp6Rnd5 0.0
p7Rd6 1.0
p23Rd6 0.0
temp7Rnd5 1.0
p8Rd6 1.0
p24Rd6 1.0
temp8Rnd5 1.0
p9Rd6 0.0
p25Rd6 -7.771561172376096e-16
temp9Rnd5 -7.771561172376096e-16
p10Rd6 0.0
p26Rd6 2.4424906541753444e-15
temp10Rnd5 2.6645352591003757e-15
p11Rd6 -7.771561172376096e-16
p27Rd6 7.771561172376096e-16
temp11Rnd5 7.771561172376096e-16
p12Rd6 3.1086244689504383e-15
p28Rd6 1.0000000000000018
temp12Rnd5 1.0000000000000049
p13Rd6 8.881784197001252e-15
p29Rd6 7.105427357601002e-15
temp13Rnd5 8.881784197001252e-15
p14Rd6 0.9999999999999911
p30Rd6 0.9999999999999787
temp14Rnd5 0.9999999999999787
p15Rd6 3.1086244689504383e-15
p31Rd6 2.6645352591003757e-15
temp15Rnd5 3.1086244689504383e-15
temp5 1.9984014443252818e-15
